NAME: instance_2848
TYPE: TSP
DIMENSION: 20
EDGE_WEIGHT_TYPE: EUC_2D
NODE_COORD_SECTION
0 65.63 46.57
1 3.78 45.95
2 20.39 57.57
3 36.96 98.33
4 55.22 75.67
5 6.97 81.69
6 26.15 58.51
7 89.49 69.67
8 75.57 39.20
9 23.03 89.28
10 48.23 94.06
11 84.71 95.85
12 97.56 39.31
13 28.50 96.27
14 35.85 89.35
15 87.18 88.26
16 55.66 24.05
17 84.30 96.52
18 13.76 89.03
19 82.11 89.30
EOF
